
(set-logic ALL) 

(declare-datatype MyList ((Nil) (Cons (head Real) (tail MyList)) )) 
(declare-fun l0 () MyList) 
(declare-fun l1 () MyList) 
(declare-fun l2 () MyList) 
(declare-fun l3 () MyList) 
(declare-fun i0 () Real) 
(declare-fun i1 () Real) 
(assert (not (= l3 l1)) )
(assert (and (is-Nil Nil) (= l2 Nil)) )
(assert (and (is-Cons l0) (= l1 Nil)) )
(assert (= l1 Nil) )
(assert (not (is-Nil Nil)) )
(assert (not (= l1 Nil)) )
(assert (= l1 l2) )
(assert (is-Nil Nil) )
(check-sat)
